NAME : mEgtspf.pid31984.gtsp.268435632.tour
COMMENT : Length = 268435632
COMMENT : Found by LKH [Keld Helsgaun] Fri Mar  7 03:00:50 2025
TYPE : TOUR
DIMENSION : 170
TOUR_SECTION
1
36
37
38
35
8
162
159
160
161
22
19
20
21
155
156
157
158
4
2
150
147
148
149
133
134
131
132
46
43
44
45
118
115
116
117
114
111
112
113
136
137
138
135
62
59
60
61
110
107
108
109
121
122
119
120
52
53
54
51
101
102
99
100
39
40
41
42
96
97
98
95
12
13
14
11
3
28
29
30
27
88
89
90
87
166
163
164
165
126
123
124
125
94
91
92
93
69
70
67
68
24
25
26
23
141
142
139
140
73
74
71
72
82
79
80
81
34
31
32
33
66
63
64
65
169
170
167
168
6
55
56
57
58
78
75
76
77
105
106
103
104
5
145
146
143
144
129
130
127
128
16
17
18
15
49
50
47
48
7
10
83
84
85
86
9
154
151
152
153
-1
EOF
